n1 = 8;
adjacent1 = [| 0, 0, 0, 0, 1, 1, 1, 0
| 0, 0, 0, 0, 1, 1, 0, 1
| 0, 0, 0, 0, 1, 0, 1, 1
| 0, 0, 0, 0, 0, 1, 1, 1
| 1, 1, 1, 0, 0, 0, 0, 0
| 1, 1, 0, 1, 0, 0, 0, 0
| 1, 0, 1, 1, 0, 0, 0, 0
| 0, 1, 1, 1, 0, 0, 0, 0 |];
n2 = 8;
adjacent2 = [| 0, 1, 0, 1, 1, 0, 0, 0
| 1, 0, 1, 0, 0, 1, 0, 0
| 0, 1, 0, 1, 0, 0, 1, 0
| 1, 0, 1, 0, 0, 0, 0, 1
| 1, 0, 0, 0, 0, 1, 0, 1
| 0, 1, 0, 0, 1, 0, 1, 0
| 0, 0, 1, 0, 0, 1, 0, 1
| 0, 0, 0, 1, 1, 0, 1, 0 |];